c ren 1 -> 1
c ren 2 -> 2
c ren 3 -> 3
c ren 4 -> 4
c ren 5 -> 5
c ren 6 -> 6
c ren 7 -> 7
c ren 8 -> 8
c ren 9 -> 9
c ren 10 -> 10
c ren 11 -> 11
c ren 12 -> 12
c ren 13 -> 13
c ren 14 -> 14
c ren 15 -> 15
c ren 16 -> 16
c ren 17 -> 17
c ren 18 -> 18
c ren 19 -> 19
c ren 20 -> 20
c ren 21 -> 21
c ren 22 -> 22
c ren 23 -> 23
c ren 24 -> 24
c ren 25 -> 25
c ren 26 -> 26
c ren 27 -> 27
c ren 28 -> 28
c ren 29 -> 29
c ren 30 -> 30
c ren 31 -> 31
c ren 32 -> 32
c ren 33 -> 33
c ren 34 -> 34
c ren 35 -> 35
c ren 36 -> 36
c ren 37 -> 37
c ren 38 -> 38
c ren 39 -> 39
c ren 40 -> 40
c ren 41 -> 41
c ren 42 -> 42
c ren 43 -> 43
c ren 44 -> 44
c ren 45 -> 45
c ren 46 -> 46
c ren 47 -> 47
c ren 48 -> 48
c ren 49 -> 49
c ren 50 -> 50
c ren 51 -> 51
c ren 52 -> 52
c ren 53 -> 53
c ren 54 -> 54
c ren 55 -> 55
c ren 56 -> 56
c ren 57 -> 57
c ren 58 -> 58
c ren 59 -> 59
c ren 60 -> 60
c ren 61 -> 61
c ren 62 -> 62
c ren 63 -> 63
c ren 64 -> 64
c ren 65 -> 65
c ren 66 -> 66
c ren 67 -> 67
c ren 68 -> 68
c ren 69 -> 69
c ren 70 -> 70
c ren 71 -> 71
c ren 72 -> 72
c ren 73 -> 73
c ren 74 -> 74
c ren 85 -> 75
c ren 100 -> 76
c ren 115 -> 77
c ren 117 -> 78
c ren 118 -> 79
c ren 120 -> 80
c ren 121 -> 81
c ren 124 -> 82
c ren 125 -> 83
c ren 127 -> 84
c ren 128 -> 85
c ren 132 -> 86
c ren 133 -> 87
c ren 165 -> 88
c ren 177 -> 89
c ren 189 -> 90
c ren 201 -> 91
c ren 207 -> 92
c ren 208 -> 93
c ren 210 -> 94
c ren 225 -> 95
c ren 233 -> 96
c ren 238 -> 97
c ren 239 -> 98
c ren 245 -> 99
c ren 246 -> 100
c ren 254 -> 101
c ren 255 -> 102
c ren 261 -> 103
c ren 262 -> 104
c ren 269 -> 105
c ren 270 -> 106
c ren 276 -> 107
c ren 277 -> 108
c ren 286 -> 109
c ren 287 -> 110
c ren 293 -> 111
c ren 294 -> 112
c ren 301 -> 113
c ren 302 -> 114
c ren 308 -> 115
c ren 309 -> 116
c ren 317 -> 117
c ren 318 -> 118
c ren 324 -> 119
c ren 325 -> 120
p cnf 120 344
a 1 2 3 4 5 6 7 8 9 10 11 12 13 14 15 16 17 18 19 20 21 22 23 24 25 26 27 28 29 30 31 32 33 34 35 36 37 38 39 40 41 42 43 44 45 46 47 48 49 50 51 52 53 54 55 0
d 56 1 2 3 4 5 6 7 8 9 10 11 12 13 14 15 16 17 18 19 20 21 22 23 24 25 26 27 28 29 30 31 32 33 34 35 36 0
d 57 1 2 3 4 5 6 7 8 9 10 11 12 13 14 15 16 17 18 19 20 21 22 23 24 25 26 27 28 29 30 31 32 33 34 35 36 0
d 58 1 2 3 4 5 6 7 8 9 10 11 12 13 14 15 16 17 18 19 20 21 22 23 24 25 26 27 28 29 30 31 32 33 34 35 36 0
d 59 1 2 3 4 5 6 7 8 9 10 11 12 13 14 15 16 17 18 19 20 21 22 23 24 25 26 27 28 29 30 31 32 33 34 35 36 0
d 60 1 2 3 4 5 6 7 8 9 10 11 12 13 14 15 16 17 18 19 20 21 22 23 24 25 26 27 28 29 30 31 32 33 34 35 36 0
d 61 1 2 3 4 5 6 7 8 9 10 11 12 13 14 15 16 17 18 19 20 21 22 23 24 25 26 27 28 29 30 31 32 33 34 35 36 0
d 62 1 2 3 4 5 6 7 8 9 10 11 12 13 14 15 16 17 18 19 20 21 22 23 24 25 26 27 28 29 30 31 32 33 34 35 36 0
d 63 1 2 3 4 5 6 7 8 9 10 11 12 13 14 15 16 17 18 19 20 21 22 23 24 25 26 27 28 29 30 31 32 33 34 35 36 0
d 64 1 2 3 4 5 6 7 8 9 10 11 12 13 14 15 16 17 18 19 20 21 22 23 24 25 26 27 28 29 30 31 32 33 34 35 36 0
d 65 1 2 3 4 5 6 7 8 9 10 11 12 13 14 15 16 17 18 19 20 21 22 23 24 25 26 27 28 29 30 31 32 33 34 35 36 0
d 66 1 2 3 4 5 6 7 8 9 10 11 12 13 14 15 16 17 18 19 20 21 22 23 24 25 26 27 28 29 30 31 32 33 34 35 36 0
d 67 1 2 3 4 5 6 7 8 9 10 11 12 13 14 15 16 17 18 19 20 21 22 23 24 25 26 27 28 29 30 31 32 33 34 35 36 0
d 68 1 2 3 4 5 6 7 8 9 10 11 12 13 14 15 16 17 18 19 20 21 22 23 24 25 26 27 28 29 30 31 32 33 34 35 36 0
d 69 1 2 3 4 5 6 7 8 9 10 11 12 13 14 15 16 17 18 19 20 21 22 23 24 25 26 27 28 29 30 31 32 33 34 35 36 0
d 70 1 2 3 4 5 6 7 8 9 10 11 12 13 14 15 16 17 18 19 20 21 22 23 24 25 26 27 28 29 30 31 32 33 34 35 36 0
d 71 1 2 3 4 5 6 7 8 9 10 11 12 13 14 15 16 17 18 19 20 21 22 23 24 25 26 27 28 29 30 31 32 33 34 35 36 0
d 72 1 2 3 4 5 6 7 8 9 10 11 12 13 14 15 16 17 18 19 20 21 22 23 24 25 26 27 28 29 30 31 32 33 34 35 36 0
d 73 18 19 20 21 22 23 24 25 26 27 28 29 30 31 32 33 34 35 36 0
d 74 37 38 39 40 41 42 43 44 45 46 47 48 49 50 51 52 53 54 55 0
e 75 76 77 78 79 80 81 82 83 84 85 86 87 88 89 90 91 92 93 94 95 96 97 98 99 100 101 102 103 104 105 106 107 108 109 110 111 112 113 114 115 116 117 118 119 120 0
34 -35 36 53 -54 55 75 0
-34 -35 36 -53 -54 55 75 0
-34 35 36 -53 54 55 75 0
34 35 -36 53 54 -55 75 0
-34 35 -36 -53 54 -55 75 0
34 35 36 53 54 55 75 0
-34 -35 -36 -53 -54 -55 75 0
34 -35 -36 53 -54 -55 75 0
18 19 20 -21 37 38 39 -40 76 0
18 19 -20 -21 37 38 -39 -40 76 0
-18 -19 20 21 -37 -38 39 40 76 0
18 19 -20 21 37 38 -39 40 76 0
18 -19 20 21 37 -38 39 40 76 0
-18 -19 -20 21 -37 -38 -39 40 76 0
18 -19 -20 21 37 -38 -39 40 76 0
-18 19 20 21 -37 38 39 40 76 0
-18 -19 -20 -21 -37 -38 -39 -40 76 0
18 -19 -20 -21 37 -38 -39 -40 76 0
-18 19 20 -21 -37 38 39 -40 76 0
-18 19 -20 21 -37 38 -39 40 76 0
18 19 20 21 37 38 39 40 76 0
-18 -19 20 -21 -37 -38 39 -40 76 0
18 -19 20 -21 37 -38 39 -40 76 0
-18 19 -20 -21 -37 38 -39 -40 76 0
22 23 24 -25 41 42 43 -44 77 0
22 23 -24 -25 41 42 -43 -44 77 0
-22 -23 24 25 -41 -42 43 44 77 0
22 23 -24 25 41 42 -43 44 77 0
22 -23 24 25 41 -42 43 44 77 0
-22 -23 -24 25 -41 -42 -43 44 77 0
22 -23 -24 25 41 -42 -43 44 77 0
-22 23 24 25 -41 42 43 44 77 0
-22 -23 -24 -25 -41 -42 -43 -44 77 0
22 -23 -24 -25 41 -42 -43 -44 77 0
-22 23 24 -25 -41 42 43 -44 77 0
-22 23 -24 25 -41 42 -43 44 77 0
22 23 24 25 41 42 43 44 77 0
-22 -23 24 -25 -41 -42 43 -44 77 0
22 -23 24 -25 41 -42 43 -44 77 0
-22 23 -24 -25 -41 42 -43 -44 77 0
31 32 33 50 51 52 -73 74 -75 -76 -77 78 79 80 81 82 83 84 85 86 87 0
-45 -78 0
26 -78 0
45 -79 0
-26 -79 0
31 32 33 50 51 52 73 -74 -75 -76 -77 78 79 80 81 82 83 84 85 86 87 0
-46 -80 0
27 -80 0
46 -81 0
-27 -81 0
31 32 -33 50 51 -52 -73 74 -75 -76 -77 78 79 80 81 82 83 84 85 86 87 0
31 32 -33 50 51 -52 73 -74 -75 -76 -77 78 79 80 81 82 83 84 85 86 87 0
-47 -82 0
28 -82 0
47 -83 0
-28 -83 0
31 -32 33 50 -51 52 -73 74 -75 -76 -77 78 79 80 81 82 83 84 85 86 87 0
-48 -84 0
29 -84 0
48 -85 0
-29 -85 0
31 -32 33 50 -51 52 73 -74 -75 -76 -77 78 79 80 81 82 83 84 85 86 87 0
31 -32 -33 50 -51 -52 -73 74 -75 -76 -77 78 79 80 81 82 83 84 85 86 87 0
31 -32 -33 50 -51 -52 73 -74 -75 -76 -77 78 79 80 81 82 83 84 85 86 87 0
-49 -86 0
30 -86 0
49 -87 0
-30 -87 0
-31 32 33 -50 51 52 -73 74 -75 -76 -77 78 79 80 81 82 83 84 85 86 87 0
-31 32 -33 -50 51 -52 -73 74 -75 -76 -77 78 79 80 81 82 83 84 85 86 87 0
-31 32 33 -50 51 52 73 -74 -75 -76 -77 78 79 80 81 82 83 84 85 86 87 0
-31 -32 33 -50 -51 52 -73 74 -75 -76 -77 78 79 80 81 82 83 84 85 86 87 0
-31 32 -33 -50 51 -52 73 -74 -75 -76 -77 78 79 80 81 82 83 84 85 86 87 0
-31 -32 33 -50 -51 52 73 -74 -75 -76 -77 78 79 80 81 82 83 84 85 86 87 0
-31 -32 -33 -50 -51 -52 -73 74 -75 -76 -77 78 79 80 81 82 83 84 85 86 87 0
-31 -32 -33 -50 -51 -52 73 -74 -75 -76 -77 78 79 80 81 82 83 84 85 86 87 0
-14 -15 -18 -32 -33 -51 -52 -73 74 -95 -96 97 98 99 100 101 102 103 104 105 106 107 108 109 110 111 112 113 114 115 116 117 118 119 120 0
18 -55 93 0
-18 -35 -72 91 -93 0
16 17 34 36 53 54 92 93 95 0
-36 -55 72 91 93 0
35 72 -91 94 0
-18 -36 72 -91 -93 0
56 57 -58 59 -88 0
-56 57 58 59 -88 0
56 57 58 59 88 0
56 -57 58 59 -88 0
34 36 53 54 92 94 95 0
-56 57 -58 -59 -88 0
-56 -57 -58 -59 88 0
56 -57 -58 59 88 0
56 -57 -58 -59 -88 0
-56 57 -58 59 88 0
-56 57 58 -59 88 0
-56 -57 58 -59 -88 0
56 -57 58 -59 88 0
56 57 58 -59 -88 0
56 57 -58 -59 88 0
-56 -57 -58 59 -88 0
-56 -57 58 59 88 0
-60 -61 62 63 88 -89 0
60 61 62 63 88 -89 0
-60 -61 -62 -63 88 -89 0
-60 61 62 63 -88 -89 0
60 61 -62 -63 -88 89 0
60 61 -62 -63 88 -89 0
-60 61 -62 -63 88 89 0
-60 61 -62 63 -88 89 0
-60 -61 -62 63 88 89 0
60 61 -62 63 88 89 0
-60 -61 62 -63 -88 -89 0
-60 61 -62 -63 -88 -89 0
-60 61 62 -63 88 -89 0
-60 -61 -62 -63 -88 89 0
60 -61 -62 63 88 -89 0
60 -61 62 63 -88 -89 0
-60 61 -62 63 88 -89 0
60 -61 -62 63 -88 89 0
60 -61 62 -63 88 -89 0
-60 -61 62 63 -88 89 0
60 -61 -62 -63 88 89 0
60 -61 -62 -63 -88 -89 0
-60 -61 62 -63 88 89 0
-60 61 62 63 88 89 0
-60 61 62 -63 -88 89 0
60 61 -62 63 -88 -89 0
60 -61 62 63 88 89 0
60 -61 62 -63 -88 89 0
60 61 62 63 -88 89 0
-60 -61 -62 63 -88 -89 0
60 61 62 -63 88 89 0
60 61 62 -63 -88 -89 0
-64 -65 66 67 89 -90 0
64 65 66 67 89 -90 0
-64 -65 -66 -67 89 -90 0
-64 65 66 67 -89 -90 0
64 65 -66 -67 -89 90 0
64 65 -66 -67 89 -90 0
-64 65 -66 -67 89 90 0
-64 65 -66 67 -89 90 0
-64 -65 -66 67 89 90 0
64 65 -66 67 89 90 0
-64 -65 66 -67 -89 -90 0
-64 65 -66 -67 -89 -90 0
-64 65 66 -67 89 -90 0
-64 -65 -66 -67 -89 90 0
64 -65 -66 67 89 -90 0
64 -65 66 67 -89 -90 0
-64 65 -66 67 89 -90 0
64 -65 -66 67 -89 90 0
64 -65 66 -67 89 -90 0
-64 -65 66 67 -89 90 0
64 -65 -66 -67 89 90 0
64 -65 -66 -67 -89 -90 0
-64 -65 66 -67 89 90 0
-64 65 66 67 89 90 0
-64 65 66 -67 -89 90 0
64 65 -66 67 -89 -90 0
64 -65 66 67 89 90 0
64 -65 66 -67 -89 90 0
64 65 66 67 -89 90 0
-64 -65 -66 67 -89 -90 0
64 65 66 -67 89 90 0
64 65 66 -67 -89 -90 0
-68 -69 70 71 90 -91 0
68 69 70 71 90 -91 0
-68 -69 -70 -71 90 -91 0
-68 69 70 71 -90 -91 0
68 69 -70 -71 -90 91 0
68 69 -70 -71 90 -91 0
-68 69 -70 -71 90 91 0
-68 69 -70 71 -90 91 0
-68 -69 -70 71 90 91 0
68 69 -70 71 90 91 0
-68 -69 70 -71 -90 -91 0
-68 69 -70 -71 -90 -91 0
-68 69 70 -71 90 -91 0
-68 -69 -70 -71 -90 91 0
68 -69 -70 71 90 -91 0
68 -69 70 71 -90 -91 0
-68 69 -70 71 90 -91 0
68 -69 -70 71 -90 91 0
68 -69 70 -71 90 -91 0
-68 -69 70 71 -90 91 0
68 -69 -70 -71 90 91 0
68 -69 -70 -71 -90 -91 0
-68 -69 70 -71 90 91 0
-68 69 70 71 90 91 0
-68 69 70 -71 -90 91 0
68 69 -70 71 -90 -91 0
68 -69 70 71 90 91 0
68 -69 70 -71 -90 91 0
68 69 70 71 -90 91 0
-68 -69 -70 71 -90 -91 0
68 69 70 -71 90 91 0
68 69 70 -71 -90 -91 0
-18 -36 72 91 -94 0
-18 -36 -72 -91 -94 0
-34 -53 54 72 -91 92 93 94 95 0
16 -18 34 -35 -36 53 -54 72 91 93 95 0
-34 -53 54 -72 91 92 93 94 95 0
34 -35 -36 53 -54 72 91 93 94 95 0
-18 -35 36 55 92 0
-18 -35 36 -93 0
-55 -92 0
-18 34 -35 -36 53 -54 -72 -91 93 95 0
16 17 53 54 -72 91 92 93 -94 95 0
55 -93 0
-93 -95 0
16 17 36 53 54 92 93 -94 95 0
-18 -19 -20 -21 -22 -23 -24 -25 -26 -27 -28 -29 -30 -31 -32 -33 -34 -35 -36 -73 0
-18 -35 72 -91 -93 0
-18 -36 55 -72 91 92 0
16 17 18 53 54 93 95 0
-18 -35 55 72 -91 92 0
-92 -95 0
16 -17 53 -54 92 93 -94 95 0
34 35 53 54 92 93 94 95 0
-36 72 91 -92 0
-34 -35 -36 -53 -54 -72 -91 93 94 95 0
-16 -17 -53 -54 92 93 -94 95 0
18 94 0
-16 17 -53 54 92 93 -94 95 0
18 -92 0
34 -35 -36 53 -54 -72 -91 93 94 95 0
-18 -35 55 -72 91 92 0
-18 -35 -94 0
34 53 54 -72 91 92 94 95 0
-34 -35 -36 -53 -54 72 91 93 94 95 0
34 53 54 72 -91 92 94 95 0
-36 -55 -72 -91 93 0
-36 -72 -91 -92 0
-34 36 -53 54 92 93 94 95 0
16 17 53 54 72 -91 92 93 -94 95 0
16 17 34 53 54 -72 91 92 93 95 0
-1 -37 -38 -94 96 0
-1 -19 -37 -38 96 0
16 17 34 53 54 72 -91 92 93 95 0
-19 -37 -38 94 96 0
-18 -36 -72 91 -93 0
-34 35 -53 54 92 93 94 95 0
19 -37 38 94 96 0
-18 -36 55 72 -91 92 0
37 -96 0
1 -37 38 -94 96 0
-2 -94 -98 0
2 -94 -97 0
-2 -18 -20 -98 0
20 94 -97 0
-20 94 -98 0
-39 -97 0
39 -98 0
-32 -33 -51 -52 -73 74 94 -95 -96 97 98 99 100 101 102 103 104 105 106 107 108 109 110 111 112 113 114 115 116 117 118 119 120 0
-3 -94 -100 0
3 -94 -99 0
-3 -21 -100 0
21 94 -99 0
-21 94 -100 0
-40 -99 0
16 17 35 53 54 92 93 -94 95 0
40 -100 0
14 15 51 52 -73 74 -94 -95 -96 97 98 99 100 101 102 103 104 105 106 107 108 109 110 111 112 113 114 115 116 117 118 119 120 0
14 -15 51 -52 -73 74 -94 -95 -96 97 98 99 100 101 102 103 104 105 106 107 108 109 110 111 112 113 114 115 116 117 118 119 120 0
-4 -94 -102 0
4 -94 -101 0
-4 -22 -102 0
22 94 -101 0
-22 94 -102 0
-41 -101 0
35 -72 91 94 0
41 -102 0
-14 15 -51 52 -73 74 -94 -95 -96 97 98 99 100 101 102 103 104 105 106 107 108 109 110 111 112 113 114 115 116 117 118 119 120 0
-5 -94 -104 0
5 -94 -103 0
-5 -23 -104 0
23 94 -103 0
-23 94 -104 0
-42 -103 0
16 17 34 35 53 54 92 93 95 0
42 -104 0
-14 -15 -51 -52 -73 74 -94 -95 -96 97 98 99 100 101 102 103 104 105 106 107 108 109 110 111 112 113 114 115 116 117 118 119 120 0
-32 33 -51 52 -73 74 94 -95 -96 97 98 99 100 101 102 103 104 105 106 107 108 109 110 111 112 113 114 115 116 117 118 119 120 0
-6 -94 -106 0
6 -94 -105 0
-6 -18 -24 -106 0
24 94 -105 0
-24 94 -106 0
-43 -105 0
35 36 94 0
43 -106 0
-7 -94 -108 0
7 -94 -107 0
-7 -25 -108 0
25 94 -107 0
-25 94 -108 0
-44 -107 0
35 36 -92 0
44 -108 0
32 33 51 52 -73 74 94 -95 -96 97 98 99 100 101 102 103 104 105 106 107 108 109 110 111 112 113 114 115 116 117 118 119 120 0
32 -33 51 -52 -73 74 94 -95 -96 97 98 99 100 101 102 103 104 105 106 107 108 109 110 111 112 113 114 115 116 117 118 119 120 0
-8 -94 -110 0
8 -94 -109 0
-8 -18 -26 -110 0
26 94 -109 0
-26 94 -110 0
-45 -109 0
35 36 -55 93 0
45 -110 0
-9 -94 -112 0
9 -94 -111 0
-9 -18 -27 -112 0
27 94 -111 0
-27 94 -112 0
-46 -111 0
46 -112 0
-10 -94 -114 0
10 -94 -113 0
-10 -28 -114 0
28 94 -113 0
-28 94 -114 0
-47 -113 0
47 -114 0
-11 -94 -116 0
11 -94 -115 0
-11 -18 -29 -116 0
29 94 -115 0
-29 94 -116 0
-48 -115 0
48 -116 0
-12 -94 -118 0
12 -94 -117 0
-12 -30 -118 0
30 94 -117 0
-30 94 -118 0
-49 -117 0
49 -118 0
-13 -94 -120 0
13 -94 -119 0
-13 -18 -31 -120 0
31 94 -119 0
-31 94 -120 0
-50 -119 0
50 -120 0
18 19 20 21 22 23 24 25 26 27 28 29 30 31 32 33 34 35 36 73 0
